c b=3,c=271
p cnf 14 36
1 2 3 -6 0
1 2 3 -7 0
2 3 -8 0
1 3 -9 0
3 -14 0
1 2 -3 6 0
-3 7 0
1 -3 8 0
1 2 -3 9 0
-3 14 0
1 2 -5 0
1 2 -10 0
2 -13 0
-2 3 6 0
3 -10 0
-2 -3 -6 0
-2 -3 10 0
1 -2 5 0
-2 7 0
1 -2 8 0
1 -2 -9 0
-2 13 0
1 -4 0
1 -12 0
-1 3 6 0
-1 -3 -6 0
-1 -3 10 0
-1 2 5 0
-1 2 -9 0
-1 -2 -5 0
-1 -2 9 0
-1 4 0
-1 7 0
-1 -8 0
-1 12 0
-11 0
